Solution in this episode: [443, 102, 392, 459, 171, 374, 409, 306, 239, 493, 154, 357, 426, 323, 341, 187, 120, 34, 256, 476, 52, 17, 205, 0, 69, 136, 273, 289, 86, 221, 105, 444, 394, 462, 112, 449, 113, 118, 173, 378, 410, 308, 397, 451, 240, 496, 379, 417, 156, 359, 469, 472, 401, 473, 454, 326, 384, 428, 316, 457, 343, 189, 180, 122, 36, 402, 246, 407, 259, 478, 420, 502, 54, 19, 367, 422, 250, 385, 206, 3, 163, 262, 390, 70, 138, 192, 318, 274, 292, 328, 254, 265, 88, 223, 196, 42, 47, 504, 431, 181, 507, 48, 485, 322, 185, 370, 346, 435, 332, 27, 372, 165, 125, 200, 169, 211, 268, 61, 202, 349, 76, 437, 79, 213, 84, 489, 6, 270, 441, 146, 336, 299, 29, 491, 33, 277, 128, 352, 93, 62, 338, 230, 280, 66, 147, 355, 98, 216, 151, 100, 10, 220, 300, 130, 303, 284, 11, 287, 232, 135, 14, 235]
